5	5	220	243	227
4000000	3500000
0	0	0	50	50	50	2	1	1	0	0	0
0	50	0	50	100	50	2	1	1	0	0	0
0	100	0	50	150	50	2	1	1	0	0	0
0	150	0	50	200	50	2	1	1	0	0	0
50	0	0	100	50	50	2	1	1	0	0	0
50	50	0	100	100	50	2	1	1	0	0	0
50	100	0	100	150	50	2	1	1	0	0	0
50	150	0	100	200	50	2	1	1	0	0	0
100	0	0	150	50	50	2	1	1	0	0	0
100	50	0	150	100	50	2	1	1	0	0	0
100	100	0	150	150	50	2	1	1	0	0	0
100	150	0	150	200	50	2	1	1	0	0	0
150	0	0	200	50	50	2	1	1	0	0	0
150	50	0	200	100	50	2	1	1	0	0	0
150	100	0	200	150	50	2	1	1	0	0	0
1250	150	0	1300	200	50	2	1	1	0	0	0
1100	0	50	1150	50	100	2	2	2	0	0	0
1100	0	100	1150	50	150	2	2	2	0	0	0
1100	0	150	1150	50	200	2	2	2	0	0	0
1100	50	50	1150	100	100	2	2	2	0	0	0
1100	50	100	1150	100	150	2	2	2	0	0	0
1100	50	150	1150	100	200	2	2	2	0	0	0
1100	100	50	1150	150	100	2	2	2	0	0	0
1100	100	100	1150	150	150	2	2	2	0	0	0
1100	100	150	1150	150	200	2	2	2	0	0	0
1100	150	50	1150	200	100	2	2	2	0	0	0
1100	150	100	1150	200	150	2	2	2	0	0	0
1100	150	150	1150	200	200	2	2	2	0	0	0
1150	0	50	1200	50	100	3	3	3	0	0	0
1150	0	100	1200	50	150	4	4	4	0	0	0
1150	0	150	1200	50	200	1	5	5	0	0	0
1150	150	50	1200	200	100	0	6	6	0	0	0
5	1

220	243	227

0	50	1	50	1	50	1	1	10000	4000000	4000000	4000000	0	0	Item0

1	50	1	50	1	50	1	1	10000	4000000	4000000	4000000	0	0	Item1

2	50	1	50	1	50	1	28	10000	4000000	4000000	4000000	0	0	Item2

3	50	1	50	1	50	1	1	10000	4000000	4000000	4000000	0	0	Item3

4	50	1	50	1	50	1	1	10000	4000000	4000000	4000000	0	0	Item4

